CPXPARAM_MIP_Cuts_FlowCovers#P16#0#CPXPARAM_MIP_Strategy_Branch#P34#0#3.058003#0.936558
CPXPARAM_MIP_Cuts_FlowCovers#P16#0#CPXPARAM_MIP_Strategy_Branch#P34#1#3.265152#1.000000
CPXPARAM_MIP_Cuts_FlowCovers#P16#0#CPXPARAM_MIP_Strategy_SubAlgorithm#P45#1#2.768914#0.848020
CPXPARAM_MIP_Cuts_FlowCovers#P16#0#CPXPARAM_MIP_Strategy_SubAlgorithm#P45#2#2.328953#0.713276
CPXPARAM_MIP_Cuts_FlowCovers#P16#0#CPXPARAM_MIP_Strategy_SubAlgorithm#P45#3#2.098677#0.642750
CPXPARAM_MIP_Cuts_FlowCovers#P16#0#CPXPARAM_MIP_Strategy_SubAlgorithm#P45#4#2.328967#0.713280
CPXPARAM_MIP_Cuts_FlowCovers#P16#0#CPXPARAM_MIP_Strategy_SubAlgorithm#P45#5#2.329086#0.713316
CPXPARAM_MIP_Strategy_Branch#P34#0#CPXPARAM_MIP_Strategy_SubAlgorithm#P45#1#2.328960#0.713278
CPXPARAM_MIP_Strategy_Branch#P34#0#CPXPARAM_MIP_Strategy_SubAlgorithm#P45#2#2.328951#0.713275
CPXPARAM_MIP_Strategy_Branch#P34#0#CPXPARAM_MIP_Strategy_SubAlgorithm#P45#3#2.098911#0.642822
CPXPARAM_MIP_Strategy_Branch#P34#0#CPXPARAM_MIP_Strategy_SubAlgorithm#P45#4#2.328997#0.713289
CPXPARAM_MIP_Strategy_Branch#P34#0#CPXPARAM_MIP_Strategy_SubAlgorithm#P45#5#2.328832#0.713239
CPXPARAM_MIP_Strategy_Branch#P34#1#CPXPARAM_MIP_Strategy_SubAlgorithm#P45#1#2.329001#0.713290
